10
45
0 1 9
0 2 6
0 3 19
0 4 18
0 5 12
0 6 36
0 7 64
0 8 4
0 9 15
1 2 15
1 3 14
1 4 9
1 5 3
1 6 27
1 7 59
1 8 13
1 9 10
2 3 13
2 4 24
2 5 18
2 6 30
2 7 58
2 8 10
2 9 9
3 4 23
3 5 13
3 6 25
3 7 45
3 8 23
3 9 4
4 5 12
4 6 36
4 7 68
4 8 22
4 9 19
5 6 24
5 7 58
5 8 16
5 9 9
6 7 58
6 8 40
6 9 21
7 8 68
7 9 49
8 9 19
